106643
60,5,34,29,1,37,15,26,32,6,55,50,71,80,59,46,48,33,56,42,2,11,22,54,41,24,14,68,77,40,51,38,62,49,64,30,23,47,18,4,20,17,36,12,0,9,28,63,72,44,45,53,79,61,13,69,25,35,70,65,75,66,19,8,76,16,57,73,31,39,10,74,81,21,43,67,58,52,3,82,7,27,78
